Version identifier: 22.1.1.0 | 2022-11-28 | 9160aff4d
CPXPARAM_ClockType                               1
CPXPARAM_Read_DataCheck                          1
CPXPARAM_Threads                                 1
CPXPARAM_Simplex_Tolerances_Optimality           1.0000000000000001e-09
CPXPARAM_TimeLimit                               7200
CPXPARAM_MIP_Tolerances_AbsMIPGap                0
CPXPARAM_MIP_Tolerances_MIPGap                   0
CPXPARAM_MIP_Tolerances_Integrality              0
Tried aggregator 4 times.
MIQP Presolve eliminated 924014 rows and 13172 columns.
MIQP Presolve modified 1030 coefficients.
Aggregator did 10017 substitutions.
Reduced MIQP has 33920 rows, 17311 columns, and 150151 nonzeros.
Reduced MIQP has 16445 binaries, 866 generals, 0 SOSs, and 0 indicators.
Reduced MIQP objective Q matrix has 866 nonzeros.
Presolve time = 2.04 sec. (1176.42 ticks)
Probing time = 0.03 sec. (12.14 ticks)
Tried aggregator 1 time.
MIQP Presolve eliminated 28 rows and 0 columns.
MIQP Presolve modified 338 coefficients.
Reduced MIQP has 33892 rows, 17311 columns, and 149616 nonzeros.
Reduced MIQP has 16445 binaries, 866 generals, 0 SOSs, and 0 indicators.
Reduced MIQP objective Q matrix has 866 nonzeros.
Presolve time = 0.13 sec. (84.89 ticks)
Classifier predicts products in MIQP should be linearized.
Probing time = 0.03 sec. (11.42 ticks)
Clique table members: 36666.
MIP emphasis: balance optimality and feasibility.
MIP search method: dynamic search.
Parallel mode: none, using 1 thread.
Root relaxation solution time = 76.29 sec. (106173.20 ticks)

        Nodes                                         Cuts/
   Node  Left     Objective  IInf  Best Integer    Best Bound    ItCnt     Gap

      0     0     4084.7588 10581                   4084.7588       11         

Clique cuts applied:  440
Zero-half cuts applied:  629

Root node processing (before b&c):
  Real time             = 7225.50 sec. (4206416.96 ticks)
Sequential b&c:
  Real time             =    0.00 sec. (0.00 ticks)
                          ------------
Total (root+branch&cut) = 7225.50 sec. (4206416.96 ticks)
Solution is infeasible.

---------------------
@@@ MIP_time_limit_infeasible
Traceback (most recent call last):
  File "/scratch/scherif/DiverseSAT-journal_sup/DiverseSAT_Supplementary_Experiments/experiment-1/cplex/jobs/../solvers/CPLEX-QP-SE.py", line 118, in <module>
    print(f">>> Benchmark {os.path.basename(cnf_file)} k {k} OPT {int(prob.solution.get_objective_value())}"
  File "/users/scherif/.local/lib/python3.9/site-packages/cplex/_internal/_subinterfaces.py", line 7211, in get_objective_value
    return CPX_PROC.getobjval(self._env._e, self._cplex._lp)
  File "/users/scherif/.local/lib/python3.9/site-packages/cplex/_internal/_procedural.py", line 2055, in getobjval
    check_status(env, status)
  File "/users/scherif/.local/lib/python3.9/site-packages/cplex/_internal/_procedural.py", line 249, in __call__
    raise CplexSolverError(error_string, env, status)
cplex.exceptions.errors.CplexSolverError: CPLEX Error  1217: No solution exists.
